c This is a random SAT instance with 10 variables and 20 clauses
p cnf 10 20
-2 4 -6 -5 3 -8 -4 -9 0
2 0
10 -7 -5 -3 0
-6 -4 -10 7 -9 -7 6 0
-3 -7 -1 5 -6 8 -10 1 0
-1 -10 3 -8 8 -6 -7 -4 0
7 -10 6 8 -2 -5 0
9 7 6 10 -8 8 4 -3 -7 0
7 8 1 4 -10 -8 0
-10 0
-1 10 -10 -7 1 2 9 3 0
6 -8 8 0
-7 8 0
-6 2 10 4 -7 -10 9 -5 -8 0
1 -3 -9 8 5 -1 4 3 -10 0
5 6 -7 0
-5 2 -3 -8 4 6 0
3 -9 -10 -3 -4 5 -8 0
-1 -5 7 2 10 -4 -6 -9 3 9 0
-3 -2 0